Problem:    21
Rows:       11
Columns:    48 (48 integer, 48 binary)
Non-zeros:  144
Status:     INTEGER OPTIMAL
Objective:  z = 52 (MINimum)

   No.   Row name        Activity     Lower bound   Upper bound
------ ------------    ------------- ------------- -------------
     1 assegnamento[1]
                                   1             1               
     2 assegnamento[2]
                                   1             1               
     3 assegnamento[3]
                                   1             1               
     4 assegnamento[4]
                                   1             1               
     5 assegnamento[5]
                                   1             1               
     6 assegnamento[6]
                                   1             1               
     7 capacita[1]                 0                          20 
     8 capacita[2]                13                          20 
     9 capacita[3]                17                          20 
    10 capacita[4]                15                          20 
    11 z                          52                             

   No. Column name       Activity     Lower bound   Upper bound
------ ------------    ------------- ------------- -------------
     1 y[1,1,1]     *              0             0             1 
     2 y[1,1,2]     *              0             0             1 
     3 y[1,1,3]     *              0             0             1 
     4 y[1,1,4]     *              0             0             1 
     5 y[2,1,1]     *              0             0             1 
     6 y[2,1,2]     *              0             0             1 
     7 y[2,1,3]     *              1             0             1 
     8 y[2,1,4]     *              0             0             1 
     9 y[1,2,1]     *              0             0             1 
    10 y[1,2,2]     *              0             0             1 
    11 y[1,2,3]     *              0             0             1 
    12 y[1,2,4]     *              0             0             1 
    13 y[2,2,1]     *              0             0             1 
    14 y[2,2,2]     *              0             0             1 
    15 y[2,2,3]     *              0             0             1 
    16 y[2,2,4]     *              1             0             1 
    17 y[1,3,1]     *              0             0             1 
    18 y[1,3,2]     *              0             0             1 
    19 y[1,3,3]     *              0             0             1 
    20 y[1,3,4]     *              1             0             1 
    21 y[2,3,1]     *              0             0             1 
    22 y[2,3,2]     *              0             0             1 
    23 y[2,3,3]     *              0             0             1 
    24 y[2,3,4]     *              0             0             1 
    25 y[1,4,1]     *              0             0             1 
    26 y[1,4,2]     *              1             0             1 
    27 y[1,4,3]     *              0             0             1 
    28 y[1,4,4]     *              0             0             1 
    29 y[2,4,1]     *              0             0             1 
    30 y[2,4,2]     *              0             0             1 
    31 y[2,4,3]     *              0             0             1 
    32 y[2,4,4]     *              0             0             1 
    33 y[1,5,1]     *              0             0             1 
    34 y[1,5,2]     *              1             0             1 
    35 y[1,5,3]     *              0             0             1 
    36 y[1,5,4]     *              0             0             1 
    37 y[2,5,1]     *              0             0             1 
    38 y[2,5,2]     *              0             0             1 
    39 y[2,5,3]     *              0             0             1 
    40 y[2,5,4]     *              0             0             1 
    41 y[1,6,1]     *              0             0             1 
    42 y[1,6,2]     *              0             0             1 
    43 y[1,6,3]     *              1             0             1 
    44 y[1,6,4]     *              0             0             1 
    45 y[2,6,1]     *              0             0             1 
    46 y[2,6,2]     *              0             0             1 
    47 y[2,6,3]     *              0             0             1 
    48 y[2,6,4]     *              0             0             1 

Integer feasibility conditions:

KKT.PE: max.abs.err = 0.00e+000 on row 0
        max.rel.err = 0.00e+000 on row 0
        High quality

KKT.PB: max.abs.err = 0.00e+000 on row 0
        max.rel.err = 0.00e+000 on row 0
        High quality

End of output
